NAME : d198
COMMENT : Optimum tour for d198 (15780)
TYPE : TOUR
DIMENSION : 198
TOUR_SECTION
113
104
91
90
79
78
62
48
47
34
38
46
50
49
63
77
76
75
80
64
51
45
52
61
74
81
73
65
60
53
44
37
30
31
36
35
32
33
27
29
28
22
21
26
25
24
23
20
19
18
17
16
15
14
13
39
0
1
6
5
2
3
4
7
8
9
10
11
12
40
42
41
56
57
68
70
84
85
99
98
86
83
72
71
67
58
55
43
54
59
66
69
82
87
97
96
88
89
95
94
93
100
92
101
102
103
114
121
120
115
116
117
118
119
122
138
153
154
155
156
157
158
137
123
168
124
125
130
129
132
131
133
139
141
146
147
152
159
160
161
151
148
145
142
140
134
135
128
126
169
127
136
143
144
149
150
162
163
164
165
171
170
189
188
187
190
191
192
185
186
195
196
197
194
193
178
184
183
179
177
174
173
172
175
176
180
182
181
167
166
107
108
109
110
106
105
111
112
-1
EOF